(set-info :smt-lib-version 2.6)
(set-logic QF_LIA)
(set-info :category "industrial")
(set-info :status sat)
(declare-fun x0 () Int)
(declare-fun x1 () Int)
(declare-fun x10 () Int)
(declare-fun x11 () Int)
(declare-fun x12 () Int)
(declare-fun x13 () Int)
(declare-fun x14 () Int)
(declare-fun x15 () Int)
(declare-fun x16 () Int)
(declare-fun x17 () Int)
(declare-fun x18 () Int)
(declare-fun x19 () Int)
(declare-fun x2 () Int)
(declare-fun x20 () Int)
(declare-fun x21 () Int)
(declare-fun x22 () Int)
(declare-fun x23 () Int)
(declare-fun x24 () Int)
(declare-fun x25 () Int)
(declare-fun x26 () Int)
(declare-fun x27 () Int)
(declare-fun x28 () Int)
(declare-fun x29 () Int)
(declare-fun x3 () Int)
(declare-fun x30 () Int)
(declare-fun x31 () Int)
(declare-fun x32 () Int)
(declare-fun x33 () Int)
(declare-fun x34 () Int)
(declare-fun x35 () Int)
(declare-fun x36 () Int)
(declare-fun x37 () Int)
(declare-fun x38 () Int)
(declare-fun x39 () Int)
(declare-fun x4 () Int)
(declare-fun x40 () Int)
(declare-fun x41 () Int)
(declare-fun x42 () Int)
(declare-fun x43 () Int)
(declare-fun x44 () Int)
(declare-fun x5 () Int)
(declare-fun x6 () Int)
(declare-fun x7 () Int)
(declare-fun x8 () Int)
(declare-fun x9 () Int)
(assert (let ((?v_34 (* 0 x12)) (?v_1 (* 0 x15)) (?v_5 (* 0 x18)) (?v_11 (* 0 x3)) (?v_12 (* 0 x30)) (?v_2 (* 0 x32)) (?v_100 (* 1 x2)) (?v_8 (* 0 x41)) (?v_3 (* 0 x42)) (?v_32 (* 0 x43)) (?v_53 (* 1 x44)) (?v_67 (* 1 x6)) (?v_85 (* 0 x0)) (?v_4 (* 1 x11)) (?v_16 (* 0 x17)) (?v_6 (* 0 x2)) (?v_17 (* 0 x24)) (?v_10 (* 0 x28)) (?v_39 (* 1 x20)) (?v_95 (* 1 x25)) (?v_9 (* 1 x27)) (?v_65 (* 1 x31)) (?v_90 (* 0 x33)) (?v_7 (* 0 x38)) (?v_41 (* 0 x4)) (?v_63 (* 0 x40)) (?v_31 (* 1 x41)) (?v_14 (* 0 x44)) (?v_55 (* 0 x7)) (?v_42 (* 1 x36)) (?v_70 (* 0 x1)) (?v_37 (* 0 x14)) (?v_61 (* 0 x21)) (?v_29 (* 0 x25)) (?v_107 (* 1 x26)) (?v_18 (* 1 x29)) (?v_38 (* 1 x19)) (?v_62 (* 0 x34)) (?v_20 (* 2 x42)) (?v_21 (* 0 x9)) (?v_126 (* 1 x35)) (?v_22 (* 0 x11)) (?v_27 (* 1 x14)) (?v_26 (* 0 x10)) (?v_44 (* 0 x16)) (?v_75 (* 0 x26)) (?v_47 (* 0 x27)) (?v_30 (* 1 x22)) (?v_50 (* 1 x34)) (?v_40 (* 0 x39)) (?v_52 (* 1 x4)) (?v_66 (* 1 x5)) (?v_77 (* 0 x6)) (?v_56 (* 0 x8))) (let ((?v_120 (+ ?v_56 ?v_21))) (let ((?v_33 (+ ?v_77 ?v_120)) (?v_35 (* 1 x0)) (?v_36 (* 0 x13)) (?v_60 (* 0 x19)) (?v_46 (* 0 x20)) (?v_82 (* 0 x37)) (?v_84 (* 1 x40)) (?v_91 (* 1 x42)) (?v_108 (* 2 x44)) (?v_105 (* 1 x21)) (?v_49 (* 1 x3)) (?v_51 (* 0 x5)) (?v_109 (* 1 x7)) (?v_71 (* 1 x17)) (?v_74 (* 1 x23)) (?v_64 (* 1 x30)) (?v_76 (* 1 x37)) (?v_83 (* 1 x38)) (?v_88 (* 1 x15)) (?v_78 (* 1 x18)) (?v_131 (* 1 x1)) (?v_86 (* 1 x10)) (?v_115 (* 1 x8)) (?v_121 (* 1 x16)) (?v_96 (* 0 x31)) (?v_97 (* 1 x33)) (?v_87 (* 1 x12)) (?v_94 (* 0 x22)) (?v_116 (* 1 x28)) (?v_101 (* 0 x35)) (?v_125 (* 0 x36)) (?v_106 (* 0 x23)) (?v_114 (* 0 x29)) (?v_132 (+ ?v_66 ?v_77)) (?v_117 (* 2 x32)) (?v_128 (* 1 x43)) (?v_15 (* (- 1) x1)) (?v_92 (* (- 1) x14)) (?v_45 (* (- 1) x19)) (?v_0 (* (- 1) x23)) (?v_13 (* (- 1) x33)) (?v_28 (* (- 1) x34)) (?v_24 (* (- 1) x39)) (?v_25 (* (- 1) x4)) (?v_68 (* (- 1) x10)) (?v_19 (* (- 1) x35)) (?v_110 (* (- 1) x0)) (?v_57 (* (- 1) x24)) (?v_72 (* (- 1) x20)) (?v_43 (* (- 1) x12)) (?v_129 (* (- 1) x21)) (?v_58 (* (- 1) x25)) (?v_23 (* (- 1) x31)) (?v_99 (* (- 1) x3)) (?v_48 (* (- 1) x29)) (?v_102 (* (- 1) x11)) (?v_69 (* (- 1) x15)) (?v_93 (* (- 1) x32)) (?v_59 (* (- 1) x43)) (?v_80 (* (- 1) x8)) (?v_54 (* (- 1) x6)) (?v_124 (* (- 1) x2)) (?v_73 (* (- 1) x22)) (?v_98 (* (- 1) x41)) (?v_81 (* (- 1) x9)) (?v_112 (* (- 1) x16)) (?v_122 (* (- 1) x27)) (?v_89 (* (- 1) x38)) (?v_104 (* (- 1) x37)) (?v_134 (* (- 2) x7)) (?v_79 (* (- 1) x44)) (?v_119 (* (- 1) x42)) (?v_111 (* (- 1) x7)) (?v_127 (* (- 1) x5)) (?v_113 (* (- 1) x17)) (?v_123 (* (- 1) x40)) (?v_103 (* (- 1) x30)) (?v_118 (* (- 1) x36)) (?v_130 (* (- 2) x42)) (?v_135 (* (- 2) x4)) (?v_133 (* (- 1) x28))) (and (<= (+ (* (- 2) x0) (+ (* (- 2) x28) (+ (* (- 2) x31) (+ (* (- 2) x38) (+ ?v_15 (+ ?v_34 (+ (* (- 2) x13) (+ ?v_92 (+ ?v_1 (+ ?v_5 (+ ?v_45 (+ ?v_0 (+ ?v_11 (+ ?v_12 (+ ?v_2 (+ ?v_100 (+ ?v_13 (+ ?v_28 (+ ?v_24 (+ ?v_25 (+ ?v_8 (+ ?v_3 (+ ?v_32 (+ ?v_53 ?v_67)))))))))))))))))))))))) 0) (<= (+ ?v_68 (+ (* (- 1) x18) (+ ?v_0 (+ ?v_85 (+ ?v_4 (+ (* (- 1) x13) (+ ?v_1 (+ ?v_16 (+ ?v_6 (+ ?v_17 (+ ?v_10 (+ ?v_2 (+ ?v_39 (+ ?v_95 (+ ?v_9 (+ ?v_65 (+ ?v_90 (+ ?v_19 (+ ?v_7 (+ ?v_41 (+ ?v_63 (+ ?v_31 (+ ?v_3 (+ ?v_14 (+ ?v_55 (+ ?v_42 (+ (* 2 x5) (* 1 x9)))))))))))))))))))))))))))) 0) (<= (+ (* (- 2) x32) (+ ?v_110 (+ ?v_0 (+ ?v_57 (+ ?v_70 (+ ?v_37 (+ ?v_4 (+ ?v_1 (+ ?v_5 (+ ?v_72 (+ ?v_6 (+ ?v_61 (+ ?v_29 (+ ?v_7 (+ ?v_8 (+ ?v_107 (+ ?v_9 (+ ?v_10 (+ ?v_18 (+ ?v_11 (+ ?v_12 (+ ?v_38 (+ (* 2 x31) (+ ?v_13 (+ ?v_62 (+ ?v_20 (+ ?v_14 (+ ?v_21 ?v_126)))))))))))))))))))))))))))) (- 1)) (<= (+ ?v_15 (+ ?v_22 (+ ?v_43 (+ ?v_27 (+ ?v_16 (+ ?v_129 (+ ?v_58 (+ ?v_23 (+ ?v_26 (+ ?v_44 (+ ?v_99 (+ ?v_6 (+ ?v_17 (+ ?v_75 (+ ?v_47 (+ ?v_10 (+ ?v_30 (+ ?v_18 (+ ?v_50 (+ ?v_19 (+ ?v_40 (+ ?v_8 (+ ?v_52 (+ ?v_20 (+ ?v_66 ?v_33))))))))))))))))))))))))) (- 1)) (<= (+ ?v_22 (+ ?v_5 (+ ?v_0 (+ ?v_48 (+ ?v_23 (+ ?v_24 (+ ?v_25 (+ ?v_26 (+ ?v_35 (+ ?v_27 (+ ?v_28 (+ (* 2 x1) (+ ?v_36 (+ ?v_60 (+ ?v_6 (+ ?v_46 (+ ?v_29 (+ ?v_10 (+ ?v_30 (+ ?v_19 (+ ?v_82 (+ ?v_31 (+ ?v_32 (+ ?v_84 (+ ?v_91 (+ ?v_108 ?v_33)))))))))))))))))))))))))) (- 1)) (<= (+ ?v_102 (+ ?v_69 (+ ?v_34 (+ ?v_23 (+ ?v_93 (+ ?v_35 (+ ?v_36 (+ ?v_37 (+ ?v_16 (+ ?v_29 (+ ?v_12 (+ ?v_38 (+ ?v_39 (+ ?v_105 (+ ?v_49 (+ ?v_19 (+ ?v_59 (+ ?v_80 (+ ?v_40 (+ ?v_41 (+ ?v_20 (+ ?v_14 (+ ?v_51 (+ ?v_42 (+ ?v_54 (+ ?v_109 ?v_21)))))))))))))))))))))))))) 0) (<= (+ ?v_4 (+ ?v_43 (+ ?v_44 (+ ?v_71 (+ ?v_45 (+ ?v_124 (+ ?v_46 (+ ?v_73 (+ ?v_74 (+ ?v_29 (+ ?v_47 (+ ?v_48 (+ ?v_49 (+ ?v_64 (+ ?v_13 (+ ?v_50 (+ ?v_19 (+ ?v_24 (+ ?v_98 (+ ?v_3 (+ ?v_51 (+ ?v_76 (+ ?v_83 (+ ?v_52 (+ ?v_53 (+ ?v_54 (+ ?v_55 (+ ?v_56 ?v_81)))))))))))))))))))))))))))) (- 1)) (<= (+ ?v_27 (+ ?v_88 (+ ?v_112 (+ ?v_16 (+ ?v_78 (+ ?v_57 (+ ?v_58 (+ ?v_122 (+ ?v_48 (+ ?v_89 (+ ?v_25 (+ ?v_59 (+ ?v_35 (+ ?v_131 (+ ?v_86 (+ ?v_60 (+ ?v_6 (+ ?v_61 (+ ?v_11 (+ ?v_62 (+ ?v_63 (+ ?v_3 (+ ?v_14 (+ ?v_39 (+ ?v_64 (+ ?v_65 (+ ?v_42 (+ ?v_104 (+ ?v_66 (+ ?v_67 ?v_115)))))))))))))))))))))))))))))) 1) (<= (+ ?v_134 (+ ?v_68 (+ ?v_69 (+ ?v_70 (+ ?v_22 (+ ?v_34 (+ ?v_37 (+ ?v_5 (+ ?v_71 (+ ?v_72 (+ ?v_73 (+ ?v_25 (+ ?v_79 (+ ?v_36 (+ ?v_121 (+ ?v_6 (+ ?v_61 (+ ?v_74 (+ ?v_29 (+ ?v_75 (+ ?v_96 (+ ?v_31 (+ ?v_32 (+ (* 2 x29) (+ ?v_51 (+ ?v_56 (+ ?v_64 (+ ?v_97 (+ ?v_50 (+ ?v_76 ?v_77)))))))))))))))))))))))))))))) 1) (<= (+ ?v_68 (+ ?v_22 (+ ?v_1 (+ ?v_87 (+ ?v_71 (+ ?v_78 (+ ?v_58 (+ ?v_70 (+ (* (- 2) x33) (+ ?v_119 (+ ?v_59 (+ ?v_79 (+ ?v_80 (+ ?v_81 (+ ?v_36 (+ ?v_44 (+ ?v_60 (+ ?v_6 (+ ?v_46 (+ ?v_17 (+ ?v_2 (+ ?v_30 (+ ?v_64 (+ ?v_82 (+ ?v_83 (+ ?v_84 (+ ?v_51 (+ ?v_55 ?v_67)))))))))))))))))))))))))))) 1) (<= (+ ?v_85 (+ ?v_15 (+ ?v_16 (+ ?v_86 (+ ?v_87 (+ ?v_27 (+ ?v_88 (+ ?v_44 (+ (* (- 2) x19) (+ ?v_61 (+ (* (- 2) x27) (+ ?v_0 (+ ?v_57 (+ ?v_58 (+ ?v_48 (+ ?v_89 (+ ?v_2 (+ ?v_63 (+ ?v_32 (+ ?v_111 (+ ?v_11 (+ ?v_39 (+ ?v_94 (+ ?v_116 (+ ?v_64 (+ ?v_90 (+ ?v_82 ?v_91))))))))))))))))))))))))))) 0) (<= (+ (* (- 2) x26) (+ ?v_43 (+ ?v_92 (+ ?v_93 (+ ?v_26 (+ ?v_22 (+ ?v_1 (+ ?v_127 (+ ?v_44 (+ (* 2 x17) (+ (* 2 x18) (+ ?v_94 (+ ?v_95 (+ ?v_11 (+ ?v_96 (+ (* 1 x13) (+ ?v_38 (+ ?v_97 (+ ?v_101 (+ ?v_125 (+ ?v_7 (+ ?v_31 (+ ?v_32 (+ ?v_14 (+ ?v_56 (+ ?v_21 (+ (* 2 x37) ?v_77))))))))))))))))))))))))))) 0) (<= (+ ?v_85 (+ ?v_15 (+ ?v_113 (+ ?v_22 (+ ?v_37 (+ ?v_123 (+ ?v_98 (+ ?v_1 (+ ?v_86 (+ ?v_87 (+ ?v_44 (+ ?v_5 (+ ?v_61 (+ ?v_73 (+ ?v_106 (+ ?v_75 (+ ?v_10 (+ ?v_114 (+ ?v_99 (+ ?v_103 (+ ?v_40 (+ ?v_81 (+ ?v_100 (+ ?v_50 (+ (* 2 x20) (+ ?v_101 (+ ?v_42 (+ ?v_82 (+ ?v_91 ?v_132))))))))))))))))))))))))))))) 0) (<= (+ ?v_102 (+ ?v_93 (+ ?v_34 (+ ?v_37 (+ ?v_103 (+ ?v_104 (+ ?v_89 (+ ?v_81 (+ ?v_36 (+ ?v_71 (+ ?v_6 (+ ?v_105 (+ ?v_94 (+ ?v_106 (+ ?v_17 (+ ?v_47 (+ ?v_107 (+ (* 2 x25) (+ ?v_18 (+ (* 2 x28) (+ ?v_90 (+ ?v_62 (+ ?v_101 (+ ?v_84 (+ ?v_31 (+ ?v_3 (+ ?v_32 (+ ?v_108 (+ ?v_67 ?v_109))))))))))))))))))))))))))))) 1) (<= (+ ?v_110 (+ ?v_98 (+ ?v_111 (+ ?v_26 (+ ?v_22 (+ ?v_34 (+ ?v_37 (+ ?v_112 (+ ?v_71 (+ ?v_29 (+ ?v_47 (+ ?v_96 (+ ?v_7 (+ ?v_41 (+ (* (- 2) x9) (+ ?v_15 (+ ?v_11 (+ ?v_12 (+ ?v_62 (+ ?v_39 (+ ?v_105 (+ ?v_18 (+ ?v_90 (+ ?v_101 (+ ?v_42 (+ ?v_76 (+ (* 2 x39) (+ ?v_91 ?v_54)))))))))))))))))))))))))))) 0) (<= (+ ?v_113 (+ ?v_22 (+ ?v_27 (+ ?v_1 (+ ?v_61 (+ ?v_106 (+ ?v_47 (+ ?v_114 (+ ?v_11 (+ ?v_62 (+ ?v_118 (+ ?v_14 (+ ?v_38 (+ ?v_100 (+ ?v_64 (+ ?v_65 (+ ?v_117 (+ ?v_13 (+ ?v_101 (+ ?v_82 (+ (* 1 x39) (+ ?v_91 (+ ?v_128 (+ (* 3 x5) (+ ?v_54 (+ ?v_115 ?v_21)))))))))))))))))))))))))) 0) (<= (+ ?v_35 (+ ?v_15 (+ ?v_102 (+ ?v_27 (+ ?v_69 (+ ?v_26 (+ ?v_16 (+ ?v_78 (+ ?v_106 (+ ?v_17 (+ ?v_29 (+ ?v_75 (+ ?v_114 (+ ?v_116 (+ ?v_103 (+ ?v_117 (+ ?v_118 (+ ?v_24 (+ ?v_119 (+ ?v_38 (+ ?v_101 (+ ?v_63 (+ ?v_32 (+ ?v_14 (+ ?v_54 (+ ?v_55 ?v_120)))))))))))))))))))))))))) 1) (<= (+ ?v_130 (+ (* (- 2) x8) (+ ?v_35 (+ ?v_70 (+ ?v_22 (+ ?v_1 (+ ?v_5 (+ ?v_121 (+ ?v_72 (+ ?v_61 (+ ?v_57 (+ ?v_122 (+ ?v_24 (+ ?v_123 (+ ?v_59 (+ ?v_106 (+ ?v_114 (+ ?v_2 (+ ?v_30 (+ ?v_95 (+ ?v_107 (+ ?v_90 (+ ?v_62 (+ ?v_7 (+ ?v_52 (+ ?v_31 (+ ?v_108 (+ ?v_51 (+ ?v_55 (+ ?v_21 ?v_42)))))))))))))))))))))))))))))) 0) (<= (+ ?v_37 (+ ?v_113 (+ ?v_135 (+ ?v_80 (+ ?v_86 (+ ?v_44 (+ ?v_5 (+ ?v_124 (+ ?v_60 (+ ?v_46 (+ ?v_61 (+ ?v_17 (+ ?v_29 (+ ?v_47 (+ ?v_114 (+ ?v_2 (+ ?v_116 (+ ?v_62 (+ ?v_125 (+ ?v_82 (+ ?v_40 (+ ?v_32 (+ ?v_14 (+ ?v_55 (+ ?v_97 (+ ?v_126 (+ (* 2 x38) (+ ?v_84 (+ ?v_91 ?v_66))))))))))))))))))))))))))))) 0) (<= (+ (* (- 2) x18) (+ ?v_69 (+ ?v_112 (+ ?v_85 (+ ?v_70 (+ ?v_26 (+ ?v_4 (+ ?v_34 (+ ?v_73 (+ ?v_0 (+ ?v_25 (+ ?v_119 (+ ?v_127 (+ ?v_81 (+ ?v_36 (+ ?v_37 (+ ?v_71 (+ ?v_61 (+ ?v_17 (+ ?v_75 (+ ?v_9 (+ ?v_10 (+ ?v_11 (+ ?v_96 (+ ?v_40 (+ ?v_126 (+ ?v_128 (+ (* 2 x36) (+ ?v_77 ?v_115))))))))))))))))))))))))))))) (- 1)) (<= (+ ?v_102 (+ ?v_69 (+ ?v_129 (+ ?v_85 (+ ?v_26 (+ (* 2 x12) (+ ?v_44 (+ ?v_16 (+ ?v_94 (+ ?v_75 (+ ?v_74 (+ ?v_9 (+ (* 2 x24) (+ ?v_116 (+ ?v_12 (+ ?v_100 (+ ?v_65 (+ (* (- 2) x37) (+ ?v_13 (+ ?v_24 (+ ?v_59 (+ ?v_14 (+ ?v_51 (+ ?v_55 (+ ?v_56 (+ ?v_21 (+ ?v_126 (+ ?v_52 (+ ?v_84 ?v_77))))))))))))))))))))))))))))) 0) (<= (+ (* (- 2) x21) (+ ?v_130 (+ ?v_110 (+ ?v_22 (+ ?v_37 (+ ?v_1 (+ ?v_16 (+ ?v_29 (+ ?v_133 (+ ?v_114 (+ ?v_96 (+ ?v_28 (+ ?v_7 (+ ?v_111 (+ ?v_81 (+ ?v_131 (+ ?v_78 (+ ?v_60 (+ ?v_94 (+ (* 1 x24) (+ ?v_9 (+ ?v_49 (+ ?v_82 (+ ?v_41 (+ (* 2 x13) (+ ?v_126 (+ ?v_84 (+ ?v_53 ?v_132)))))))))))))))))))))))))))) 1) (<= (+ ?v_35 (+ ?v_15 (+ ?v_26 (+ ?v_44 (+ ?v_72 (+ ?v_73 (+ ?v_127 (+ ?v_36 (+ ?v_6 (+ ?v_29 (+ ?v_116 (+ ?v_18 (+ ?v_11 (+ ?v_62 (+ (* 2 x30) (+ ?v_125 (+ ?v_38 (+ ?v_82 (+ ?v_41 (+ ?v_3 (+ ?v_14 (+ ?v_21 (+ (* 2 x33) (+ ?v_126 (+ (* (- 2) x6) ?v_109))))))))))))))))))))))))) 0) (<= (+ ?v_69 (+ ?v_129 (+ ?v_133 (+ ?v_134 (+ ?v_85 (+ ?v_4 (+ ?v_34 (+ ?v_16 (+ ?v_78 (+ ?v_124 (+ ?v_107 (+ (* 3 x23) (+ ?v_103 (+ ?v_28 (+ ?v_39 (+ ?v_49 (+ ?v_118 (+ ?v_98 (+ ?v_81 (+ ?v_36 (+ ?v_41 (+ ?v_63 (+ ?v_32 (+ ?v_56 (+ ?v_126 ?v_54))))))))))))))))))))))))) 1) (<= (+ ?v_92 (+ ?v_69 (+ ?v_135 (+ ?v_70 (+ ?v_34 (+ ?v_16 (+ (* 2 x16) (+ ?v_124 (+ ?v_72 (+ ?v_105 (+ (* (- 1) x26) (+ ?v_59 (+ ?v_106 (+ ?v_17 (+ ?v_95 (+ ?v_48 (+ ?v_10 (+ ?v_99 (+ ?v_96 (+ ?v_81 (+ ?v_64 (+ ?v_125 (+ ?v_40 (+ ?v_38 (+ ?v_76 (+ ?v_31 (+ ?v_66 (+ ?v_54 ?v_109)))))))))))))))))))))))))))) 0))))))
(check-sat)
(exit)
